WARNING: for repeatability, setting FPU to use double precision
============================[ Problem Statistics ]=============================
|                                                                             |
|  Number of variables:           100                                         |
|  Number of clauses:             449                                         |
|  Parse time:                   0.00 s                                       |
|  Eliminated clauses:           0.00 Mb                                      |
|  Simplification time:          0.00 s                                       |
|                                                                             |
============================[ Search Statistics ]==============================
| Conflicts |          ORIGINAL         |          LEARNT          | Progress |
|           |    Vars  Clauses Literals |    Limit  Clauses Lit/Cl |          |
===============================================================================
|       100 |      96      436     1327 |      159      100      7 |  0.010 % |
|       250 |      96      436     1327 |      175      160      6 |  0.011 % |
===============================================================================
restarts              : 3
conflicts             : 377            (200425 /sec)
decisions             : 467            (0.00 % random) (248272 /sec)
propagations          : 8688           (4618820 /sec)
conflict literals     : 2368           (21.25 % deleted)
Memory used           : 13.00 MB
CPU time              : 0.001881 s

SATISFIABLE
